(declare-const MAXPATHLEN Int)
(declare-const glob2_pathlim_off Int)
(declare-const glob2_p_off Int)
(declare-const term_to_project_onto_integralized Int)
(declare-const |glob2_p_off'| Int)
(assert (and (<= (+ (- glob2_pathlim_off) 1) 0) (<= (- glob2_p_off) 0)
               (<= (+ (- MAXPATHLEN) 1) 0)
               (= (+ MAXPATHLEN (- glob2_pathlim_off)) 0)
               (<= (+ glob2_p_off (- glob2_pathlim_off)) 0)
               (<= (- glob2_p_off) 0) (<= (+ (- MAXPATHLEN) glob2_p_off) 0)
               (= (+ |glob2_p_off'| (- glob2_p_off) -1) 0)
               (= (+ term_to_project_onto_integralized
                       (- (+ |glob2_p_off'| (- glob2_p_off)))) 0)))
(check-sat)